
log             log.logfile
units           real
atom_style      full
dimension        3
newton           on
boundary        p p p


bond_style hybrid harmonic
angle_style hybrid harmonic
dihedral_style hybrid fourier
improper_style cvff
special_bonds lj 0.0 0.0 0.5 coul 0.0 0.0 0.8333333333

# Non-bonded interactions in Sage force field
pair_style lj/cut/coul/long 9.0 9.0
pair_modify mix arithmetic tail yes

# Load the parameterized system from .data file
read_data lammps_input_data.data

# Thermostat and velocity generation
fix 3 all npt temp 298.0 298.0 100.0 iso 1.0 1.0 300.0 # pressure unit atm, temp unit Kelvin, time unit fs
velocity all create 298.0 1 rot yes dist gaussian # change seed from 1 - 5 for repeat runs

# Output control
dump lammpstrj_dump all atom 50000 lammps_output_lammpstrj.lammpstrj
thermo_style custom step etotal pe ke temp press lx ly lz vol density
thermo 50000

# PME electrostatics in Sage force field
kspace_style pppm 1e-5

# Preliminary energy minimisation to bring atoms to a more sensible state
minimize 1.0e-4 1.0e-6 2500 25000 

# Run for X steps at 1 fs δt
timestep 1
run_style          verlet
run 10000000

unfix 3

# Output
compute pe all pe/atom
compute pair all pe/atom pair
compute bond all pe/atom bond
compute angle all pe/atom angle
compute dihedral all pe/atom dihedral
compute improper all pe/atom improper
